instances/p2/p2_10_5-1.dzn
Alphabet = {A,C,G,T};
ns = 10;
nc = 5;
neighbours = [| I(T),I(C),Null,Null,Null | I(G),I(T),I(C),Null,Null | I(C),I(C),I(A),I(C),I(T) | I(C),I(A),I(C),I(G),Null | I(A),I(C),Null,Null,Null | I(A),I(T),I(A),Null,Null | I(T),I(C),Null,Null,Null | I(G),Null,Null,Null,Null | I(C),I(T),I(G),I(T),I(T) | Null,Null,Null,Null,Null |];
